NAME : ca4663
COMMENT : 4663 locations in Canada
COMMENT : Derived from National Imagery and Mapping Agency data
TYPE : TSP
DIMENSION : 4
EDGE_WEIGHT_TYPE : EUC_2D
NODE_COORD_SECTION
1 7000.0 6000.0
2 13000.0 6000.0
3 3000.0 5000.0
4 7000.0 4000.0
EOF
